0 0 0 0
0 1 0 0
0 2 0 0
0 3 0 0
0 4 0 10
0 5 0 15
0 6 0 10
0 7 0 38
0 8 0 15
0 9 0 45
0 10 0 66
0 11 0 52
0 12 0 13
0 13 0 8
0 14 0 16
0 15 0 7
0 16 0 40
0 17 0 71
0 18 0 35
0 19 0 23
0 20 0 48
0 21 0 16
0 22 0 37
0 23 0 23
0 24 0 85
0 25 0 29
0 26 0 60
0 27 0 126
0 28 0 19
0 29 0 58
0 30 0 48
0 31 0 80
0 32 0 105
0 33 0 29
0 34 0 85
0 35 0 89
0 36 0 42
0 37 0 70
0 38 0 63
0 39 0 36
0 40 0 67
0 41 0 7
0 42 0 79
0 43 0 71
0 44 0 59
0 45 0 80
0 46 0 90
0 47 0 52
0 48 0 131
0 49 0 54
0 50 0 40
0 51 0 115
0 52 0 95
0 53 0 26
0 54 0 121
0 55 0 96
0 56 0 141
0 57 0 114
0 58 0 23
0 59 0 120
0 60 0 96
0 61 0 63
0 62 0 54
0 63 0 163
0 64 0 157
0 65 0 69
0 66 0 141
0 67 0 105
0 68 0 149
0 69 0 89
0 70 0 113
0 71 0 104
0 72 0 151
0 73 0 114
0 74 0 96
0 75 0 45
0 76 0 125
0 77 0 94
0 78 0 67
0 79 0 151
0 80 0 132
0 81 0 196
0 82 0 121
0 83 0 41
0 84 0 165
0 85 0 135
0 86 0 41
0 87 0 153
0 88 0 101
0 89 0 170
0 90 0 183
0 91 0 165
0 92 0 155
0 93 0 126
0 94 0 114
0 95 0 95
0 96 0 112
0 97 0 120
0 98 0 181
0 99 0 163
0 100 0 162
0 101 0 170
0 102 0 120
0 103 0 181
0 104 0 178
0 105 0 149
0 106 0 131
0 107 0 181
0 108 0 163
0 109 0 155
0 110 0 190
0 111 0 183
0 112 0 162
0 113 0 193
0 114 0 201
0 115 0 174
0 116 0 192
0 117 0 196
0 118 0 207
0 119 0 204
0 120 0 207
0 121 0 213
